 Code  2432
 Dimension, Fixed Cost
   100        3000
 Facility, Client, Transportation Cost
     1        2           1
     1       10           2
     1       36           0
     1       55           2
     1       60           0
     1       75           0
     2        4           1
     2        5           2
     2        7           1
     2       10           3
     2       17           2
     2       65           3
     2       69           4
     2       70           1
     2       72           0
     3        4           0
     3       20           0
     3       27           0
     3       37           0
     3       38           0
     3       50           4
     3       58           0
     3       63           1
     3       76           4
     3       85           2
     4       18           4
     4       76           2
     5        5           2
     5        9           0
     5       31           3
     5       35           1
     5       43           4
     5       73           3
     5       78           2
     5       90           0
     6        3           1
     6       10           3
     6       31           2
     6       38           2
     6       39           3
     6       44           1
     6       46           2
     6       67           3
     6       82           1
     6       92           1
     6       94           1
     7        3           1
     7        9           3
     7       19           3
     7       30           2
     7       51           4
     7       52           3
     7       53           4
     7       57           0
     7       78           1
     7       81           2
     7       94           2
     7       99           0
     8        4           4
     8        7           1
     8        8           3
     8       10           2
     8       23           1
     8       30           3
     8       32           1
     8       37           2
     8       41           0
     8       51           4
     8       65           0
     8       70           4
     8       91           1
     8       96           3
     9        2           0
     9       12           0
     9       18           0
     9       26           3
     9       27           4
     9       28           3
     9       29           4
     9       50           1
     9       60           3
     9       67           3
     9       68           3
     9       69           3
     9       73           1
     9       74           0
     9       78           0
     9       84           0
    10        5           3
    10       24           2
    10       26           1
    10       37           3
    10       46           2
    10       51           3
    10       59           1
    10       66           3
    10       71           4
    10       95           1
    10       97           2
    10       99           1
    11        2           1
    11       11           1
    11       17           2
    11       49           4
    11       56           3
    11       71           0
    11       75           0
    11       79           1
    11       80           1
    11       89           0
    11       91           3
    12        9           4
    12       33           3
    12       53           2
    12       70           4
    13        6           0
    13        7           0
    13       14           0
    13       17           2
    13       26           4
    13       27           1
    13       30           1
    13       36           2
    13       54           4
    13       56           4
    13       78           1
    13       87           3
    13       96           4
    14        9           1
    14       13           0
    14       25           2
    14       26           1
    14       37           4
    14       43           1
    14       48           0
    14       59           4
    14       64           1
    14       66           3
    14       69           2
    15       26           0
    15       38           1
    15       39           3
    15       50           4
    15       66           3
    15       73           2
    16       17           4
    16       21           1
    16       41           3
    16       61           0
    16       69           2
    16       72           2
    16       76           4
    16       79           1
    16       80           0
    16       99           3
    17        3           0
    17        7           0
    17       16           4
    17       34           2
    17       46           1
    17       52           1
    17       66           1
    17       94           3
    17       98           4
    18        8           4
    18       29           2
    18       49           0
    18       58           4
    18       72           1
    18       73           3
    18       77           2
    18       79           3
    18       85           1
    18       92           1
    19        2           3
    19       15           4
    19       27           1
    19       53           0
    19       90           1
    19       91           4
    20        4           0
    20        7           4
    20       13           2
    20       20           3
    20       28           1
    20       34           2
    20       36           1
    20       41           2
    20       63           2
    20       65           4
    20       66           1
    20       92           0
    21        7           3
    21       10           1
    21       14           3
    21       17           3
    21       20           1
    21       31           4
    21       32           1
    21       60           2
    21       78           0
    21       93           2
    22        2           1
    22        8           3
    22       42           2
    22       48           0
    22       57           3
    22       77           1
    22       81           0
    22       85           0
    22       86           3
    23        1           1
    23       20           4
    23       29           3
    23       38           4
    23       43           4
    23       44           3
    23       54           0
    23       68           1
    23       70           2
    23       83           1
    24       11           1
    24       32           2
    24       70           4
    24       81           4
    24       83           1
    25        4           4
    25       16           3
    25       24           4
    25       26           0
    25       32           4
    25       33           3
    25       49           1
    25       50           1
    25       54           4
    25       63           2
    25       90           3
    25       95           3
    25       97           2
    26        4           1
    26       23           0
    26       27           2
    26       30           4
    26       39           4
    26       48           3
    26       52           3
    26       85           2
    26       88           4
    27        1           1
    27        9           3
    27       21           4
    27       25           2
    27       56           1
    27       71           0
    27       73           2
    27       96           0
    28        6           2
    28        8           1
    28       11           2
    28       26           2
    28       31           0
    28       39           2
    28       40           1
    28       45           0
    28       47           1
    28       53           3
    28       65           1
    28       72           3
    28       77           4
    28       89           3
    28       97           0
    28       99           0
    29       19           0
    29       21           1
    29       22           0
    29       29           4
    29       34           0
    29       42           1
    29       47           4
    29       48           1
    29       57           0
    29       62           1
    29       77           2
    29       85           0
    29       89           1
    29       93           2
    29       96           4
    30        5           4
    30        6           3
    30       10           4
    30       12           2
    30       15           4
    30       19           0
    30       51           2
    30       64           2
    30       71           2
    30       72           4
    30       74           3
    30       83           4
    31        9           4
    31       16           0
    31       22           0
    31       36           1
    31       46           2
    31       57           4
    31       62           4
    31       64           0
    31       68           3
    31       75           0
    31       79           1
    31       84           2
    31       88           4
    31       92           0
    32        3           4
    32        6           3
    32        8           4
    32       13           3
    32       18           0
    32       35           1
    32       51           3
    32       53           4
    32       63           4
    32       81           4
    32       83           0
    32       86           0
    32       87           1
    32       97           0
    33        5           2
    33       12           4
    33       23           1
    33       32           2
    33       44           4
    33       71           3
    33       86           2
    33       96           1
    34        1           3
    34        8           0
    34       15           3
    34       19           1
    34       23           3
    34       55           1
    34       83           2
    35        7           4
    35       16           2
    35       19           4
    35       29           1
    35       33           3
    35       34           2
    35       38           4
    35       59           1
    35       65           4
    35       74           1
    35       75           2
    35       93           4
    36        1           0
    36       35           3
    36       36           0
    36       67           0
    36       68           0
    36       69           3
    36       71           4
    36       84           2
    36       87           2
    37        9           3
    37       14           1
    37       17           3
    37       25           3
    37       43           0
    37       46           1
    37       49           2
    37       50           4
    37       54           4
    37       64           0
    37       73           3
    37       74           3
    37       77           3
    37       88           4
    37       90           2
    37       91           4
    37       97           4
    38       15           3
    38       26           4
    38       28           4
    38       29           1
    38       34           2
    38       68           3
    38       70           4
    38       84           2
    38       90           1
    38       94           1
    38      100           0
    39       12           1
    39       16           1
    39       22           4
    39       25           1
    39       48           0
    39       55           4
    39       58           3
    39       72           2
    39       95           2
    40        4           1
    40        5           2
    40       39           0
    40       40           4
    40       47           0
    40       52           3
    40       58           4
    40       62           2
    40       75           3
    40       79           4
    40       84           4
    41       13           3
    41       16           4
    41       32           2
    41       55           0
    41       57           2
    41       83           0
    42        5           0
    42       13           2
    42       45           2
    42       47           2
    42       87           4
    42       98           1
    43        3           4
    43        9           4
    43       28           3
    43       44           0
    43       46           0
    43       57           1
    43       59           4
    43       92           3
    43       93           4
    43      100           2
    44        3           2
    44       15           3
    44       35           3
    44       60           0
    44       61           1
    44       84           0
    44       91           2
    45        7           4
    45       10           3
    45       18           3
    45       23           2
    45       41           2
    45       43           4
    45       50           1
    46       20           4
    46       61           4
    46       63           4
    46       66           1
    46       68           1
    47       24           3
    47       29           4
    47       30           0
    47       39           4
    47       45           3
    47       52           3
    47       60           3
    47       67           3
    47       79           3
    47       94           4
    47       95           2
    47       99           2
    48       13           4
    48       16           0
    48       24           4
    48       38           2
    48       40           4
    48       43           2
    48       45           1
    48       58           3
    48       67           3
    48       85           3
    48       88           2
    48       97           1
    48       98           2
    49        4           4
    49       12           2
    49       14           0
    49       58           1
    49       88           2
    49       93           3
    49      100           2
    50       20           4
    50       24           0
    50       40           0
    50       56           1
    50       74           3
    50       80           2
    50       81           0
    50       92           3
    50       95           2
    51       12           4
    51       20           1
    51       36           1
    51       38           0
    51       47           1
    51       52           1
    51       54           4
    51       63           2
    51       78           1
    51       80           4
    51       83           0
    51       85           4
    51       99           1
    52       16           4
    52       25           1
    52       30           2
    52       35           4
    52       39           1
    52       54           4
    52       57           4
    52       65           1
    52       71           0
    52       81           3
    52       84           2
    52       98           2
    53        2           1
    53        6           3
    53        7           4
    53       18           1
    53       25           0
    53       27           2
    53       41           3
    53       51           2
    53       54           1
    53       58           2
    53       69           4
    53       80           0
    53       93           2
    53       94           2
    53       95           0
    54        1           3
    54       15           4
    54       17           0
    54       37           2
    54       38           3
    54       43           2
    54       45           4
    54       48           2
    54       72           3
    54       73           1
    54       76           4
    54       82           2
    54       98           2
    55        2           1
    55       34           4
    55       35           2
    55       39           2
    55       47           1
    55       51           3
    55       58           2
    55       79           1
    55       88           0
    56       14           1
    56       25           2
    56       31           2
    56       48           3
    56       53           2
    56       86           3
    56       87           2
    57       20           3
    57       23           4
    57       32           3
    57       36           0
    57       40           0
    57       42           2
    57       76           2
    57       94           1
    58       51           4
    58       61           0
    58       65           3
    58       68           0
    58       92           1
    59       13           4
    59       15           0
    59       23           2
    59       28           3
    59       38           2
    59       41           4
    59       45           3
    59       62           0
    59       70           3
    59       74           3
    59       79           3
    59       96           0
    60       21           2
    60       33           4
    60       49           3
    60       63           2
    60       64           0
    60       66           0
    60       93           1
    61       14           4
    61       33           2
    61       51           1
    61       56           4
    61       57           0
    61       74           0
    61       77           3
    61       83           1
    61       99           1
    62        8           0
    62       22           2
    62       24           2
    62       52           2
    62       64           4
    62       71           0
    62       77           0
    62       82           2
    62       85           4
    62       86           1
    62       90           4
    62       91           4
    62       93           4
    63       11           4
    63       23           1
    63       25           4
    63       28           0
    63       48           2
    63       54           0
    63       62           0
    63       64           3
    63       77           4
    63       80           2
    63       96           4
    63      100           2
    64       11           0
    64       26           3
    64       33           4
    64       36           1
    64       41           2
    64       42           3
    64       43           1
    64       56           2
    64       78           0
    64       83           2
    64       89           3
    65        1           0
    65        4           4
    65        7           3
    65       20           4
    65       22           1
    65       28           0
    65       29           2
    65       36           2
    65       44           3
    65       79           1
    65       82           1
    65       86           3
    66       31           2
    66       33           2
    66       34           3
    66       56           0
    66       61           0
    66       62           4
    66       87           4
    66       88           3
    66       91           1
    67        6           3
    67       37           4
    67       38           2
    67       42           2
    67       44           3
    67       59           2
    67       65           4
    67       70           0
    67       74           4
    68       11           1
    68       28           3
    68       31           2
    68       35           1
    68       46           0
    68       59           4
    68       71           1
    68       73           2
    68       74           0
    68       77           0
    68       78           0
    68       86           2
    68       89           0
    69        8           1
    69       11           0
    69       13           2
    69       16           1
    69       19           1
    69       52           4
    69       64           0
    70       39           3
    70       75           3
    70       76           3
    70       87           1
    70       88           4
    70       91           3
    70       93           1
    71        5           3
    71        6           4
    71       35           1
    71       49           3
    71       52           3
    71       56           3
    71       57           2
    71       59           1
    71       60           2
    71       66           4
    71       75           3
    71       90           0
    71       94           2
    71       99           2
    72        1           0
    72        9           4
    72       10           0
    72       15           0
    72       18           3
    72       31           3
    72       40           3
    72       48           2
    72       62           2
    72       93           2
    73       10           1
    73       12           1
    73       22           0
    73       28           2
    73       42           4
    73       43           0
    73       47           0
    73       62           4
    73       76           0
    73       81           0
    73       86           4
    74       12           2
    74       18           4
    74       23           0
    74       27           0
    74       33           3
    74       41           0
    74       45           2
    74       46           1
    74       55           4
    74       60           3
    74       75           0
    74       99           3
    74      100           0
    75       35           3
    75       62           0
    75       75           1
    75       80           0
    76        3           2
    76       11           0
    76       13           1
    76       44           1
    76       47           1
    76       65           4
    76       84           2
    76       88           1
    77       14           2
    77       24           1
    77       58           1
    77       76           2
    77       82           2
    77       92           3
    78        3           2
    78        5           1
    78       19           1
    78       36           2
    78       37           2
    78       49           4
    78       55           1
    78       68           3
    78       73           2
    78       79           4
    78       82           1
    78       85           2
    78       90           0
    78       94           3
    79        8           0
    79       30           3
    79       42           2
    79       50           2
    79       52           4
    79       78           2
    79       96           3
    80        8           0
    80       17           4
    80       35           3
    80       42           1
    80       69           0
    80       76           1
    80       87           3
    81        4           4
    81       12           2
    81       13           1
    81       39           3
    81       40           2
    81       50           4
    81       55           4
    81       78           1
    81       84           0
    81       89           1
    82        3           0
    82       11           1
    82       18           2
    82       29           2
    82       53           0
    82       54           0
    82       63           1
    82       67           4
    82       70           3
    82       89           1
    82       95           2
    82      100           3
    83       40           2
    83       50           0
    83       68           0
    83       69           3
    83       87           3
    83       96           4
    84        1           3
    84        6           0
    84       34           3
    84       44           2
    84       45           0
    84       51           0
    84       61           2
    84       70           1
    84       86           1
    84       89           2
    85       32           3
    85       42           0
    85       55           3
    85       56           1
    85       66           2
    86        6           1
    86       22           1
    86       24           3
    86       31           2
    86       43           2
    86       55           3
    86       82           1
    86       85           1
    86       95           1
    86       97           3
    86      100           4
    87        5           4
    87       15           3
    87       18           4
    87       19           1
    87       21           2
    87       27           3
    87       42           1
    87       45           4
    87       49           0
    87       53           0
    87       61           2
    87       62           0
    87       67           4
    87       72           4
    87       73           3
    87       87           0
    87       90           1
    87       98           3
    87      100           2
    88       10           4
    88       15           2
    88       21           4
    88       56           4
    88       60           4
    88       86           4
    88       95           0
    89       21           4
    89       22           4
    89       27           4
    89       28           1
    89       40           0
    89       44           0
    89       61           0
    89       80           2
    89       81           3
    89       91           3
    89       92           1
    90        1           1
    90       24           4
    90       31           0
    90       32           4
    90       34           2
    90       45           2
    90       46           1
    90       47           1
    90       55           4
    90       57           2
    90       58           4
    90       59           3
    90       60           0
    90       66           4
    90       67           3
    90       69           3
    90       82           0
    90       95           2
    90       96           0
    90       97           3
    90       98           2
    91       16           4
    91       17           3
    91       25           1
    91       30           0
    91       37           0
    91       47           3
    91       59           1
    91       60           4
    91       67           2
    91       81           0
    92        3           4
    92       12           4
    92       25           4
    92       49           4
    92       59           2
    92       72           2
    92       80           1
    92       83           3
    92       88           4
    92       98           3
    93       11           4
    93       22           3
    93       29           4
    93       53           1
    93       81           4
    93       91           2
    94        1           3
    94        2           0
    94       20           3
    94       21           1
    94       30           2
    94       64           0
    94       65           3
    94       72           2
    94       75           2
    94       80           3
    94       82           1
    94       84           0
    94       92           0
    95        2           4
    95        9           4
    95       14           2
    95       27           4
    95       30           1
    95       33           2
    95       37           4
    95       40           2
    95       94           0
    95      100           4
    96       17           1
    96       19           4
    96       24           1
    96       41           4
    96       48           2
    96       49           2
    96       53           1
    96       67           3
    96       90           2
    96       98           0
    96      100           2
    97       14           2
    97       18           4
    97       23           1
    97       50           4
    97       61           0
    97       63           2
    97       69           1
    97       76           0
    97       82           2
    98       19           3
    98       21           0
    98       26           0
    98       46           4
    98       97           0
    99        2           4
    99        6           3
    99       14           4
    99       21           0
    99       22           1
    99       32           4
    99       33           1
    99       41           2
    99       44           3
    99       63           2
    99       68           2
    99       71           3
    99       77           2
    99       89           2
    99       98           2
   100       34           0
   100       37           0
   100       54           2
   100       61           1
   100       64           1
   100       74           3
   100       89           2
   100       97           4
   100       99           2
